(set-logic QF_LIA)
(declare-fun x0 () Int)
(declare-fun x1 () Int)
(declare-fun x2 () Int)
(declare-fun x3 () Int)
(declare-fun x4 () Int)
(declare-fun x5 () Int)
(declare-fun x6 () Int)
(declare-fun x7 () Int)
(declare-fun x8 () Int)
(declare-fun x9 () Int)
(declare-fun A0 () Bool)
(declare-fun A1 () Bool)
(declare-fun A2 () Bool)
(declare-fun A3 () Bool)
(declare-fun A4 () Bool)
(declare-fun A5 () Bool)
(declare-fun A6 () Bool)
(declare-fun A7 () Bool)
(declare-fun A8 () Bool)
(declare-fun A9 () Bool)
(assert (let ((.def_0 (not A3))) (let ((.def_1 (* (- 1) x2))) (let ((.def_2 (< .def_1 1))) (let ((.def_3 (or .def_2 .def_0))) (let ((.def_4 (not .def_3))) (let ((.def_5 (* 1 x1))) (let ((.def_6 (* (- 1) x0))) (let ((.def_7 (+ .def_6 .def_5))) (let ((.def_8 (< .def_7 1))) (let ((.def_9 (and .def_8 A9))) (let ((.def_10 (= .def_9 .def_4))) (let ((.def_11 (* 1 x5))) (let ((.def_12 (+ .def_11 .def_6))) (let ((.def_13 (< .def_12 (- 1)))) (let ((.def_14 (and .def_13 A6))) (let ((.def_15 (not A7))) (let ((.def_16 (and A4 .def_15))) (let ((.def_17 (and .def_16 .def_14))) (let ((.def_18 (not .def_17))) (let ((.def_19 (or .def_18 .def_10))) (let ((.def_20 (= A3 A5))) (let ((.def_21 (not .def_20))) (let ((.def_22 (not A0))) (let ((.def_23 (* (- 1) x1))) (let ((.def_24 (+ .def_11 .def_23))) (let ((.def_25 (< .def_24 (- 1)))) (let ((.def_26 (and .def_25 .def_22))) (let ((.def_27 (and .def_26 .def_21))) (let ((.def_28 (not .def_27))) (let ((.def_29 (= A3 A4))) (let ((.def_30 (not .def_29))) (let ((.def_31 (< .def_11 1))) (let ((.def_32 (or .def_0 .def_31))) (let ((.def_33 (or .def_32 .def_30))) (let ((.def_34 (or .def_33 .def_28))) (let ((.def_35 (not .def_34))) (let ((.def_36 (or .def_35 .def_19))) (let ((.def_37 (* (- 1) x4))) (let ((.def_38 (+ .def_5 .def_37))) (let ((.def_39 (< .def_38 1))) (let ((.def_40 (not .def_39))) (let ((.def_41 (or .def_40 A0))) (let ((.def_42 (not .def_41))) (let ((.def_43 (* 1 x0))) (let ((.def_44 (+ .def_23 .def_43))) (let ((.def_45 (< .def_44 1))) (let ((.def_46 (* (- 1) x8))) (let ((.def_47 (* 1 x7))) (let ((.def_48 (+ .def_47 .def_46))) (let ((.def_49 (< .def_48 (- 1)))) (let ((.def_50 (not .def_49))) (let ((.def_51 (and .def_50 .def_45))) (let ((.def_52 (or .def_51 .def_42))) (let ((.def_53 (< .def_47 1))) (let ((.def_54 (not .def_53))) (let ((.def_55 (not .def_45))) (let ((.def_56 (or .def_55 .def_54))) (let ((.def_57 (* 1 x9))) (let ((.def_58 (* 1 x3))) (let ((.def_59 (+ .def_58 .def_57))) (let ((.def_60 (< .def_59 1))) (let ((.def_61 (and .def_60 .def_0))) (let ((.def_62 (not .def_61))) (let ((.def_63 (and .def_62 .def_56))) (let ((.def_64 (and .def_63 .def_52))) (let ((.def_65 (not .def_64))) (let ((.def_66 (not A5))) (let ((.def_67 (< .def_5 (- 1)))) (let ((.def_68 (not .def_67))) (let ((.def_69 (or .def_68 .def_66))) (let ((.def_70 (not .def_69))) (let ((.def_71 (* (- 1) x7))) (let ((.def_72 (+ .def_71 .def_46))) (let ((.def_73 (< .def_72 1))) (let ((.def_74 (or .def_73 A5))) (let ((.def_75 (not .def_74))) (let ((.def_76 (and .def_75 .def_70))) (let ((.def_77 (not .def_76))) (let ((.def_78 (not A9))) (let ((.def_79 (and .def_78 A1))) (let ((.def_80 (not .def_79))) (let ((.def_81 (< .def_71 (- 1)))) (let ((.def_82 (* 1 x8))) (let ((.def_83 (< .def_82 (- 1)))) (let ((.def_84 (not .def_83))) (let ((.def_85 (or .def_84 .def_81))) (let ((.def_86 (not .def_85))) (let ((.def_87 (= .def_86 .def_80))) (let ((.def_88 (or .def_87 .def_77))) (let ((.def_89 (not .def_88))) (let ((.def_90 (= .def_89 .def_65))) (let ((.def_91 (or .def_90 .def_36))) (let ((.def_92 (not .def_91))) (let ((.def_93 (not A2))) (let ((.def_94 (or .def_15 .def_93))) (let ((.def_95 (and A9 .def_93))) (let ((.def_96 (not .def_95))) (let ((.def_97 (or .def_96 .def_94))) (let ((.def_98 (* 1 x2))) (let ((.def_99 (+ .def_98 .def_58))) (let ((.def_100 (< .def_99 (- 1)))) (let ((.def_101 (or A6 .def_100))) (let ((.def_102 (not .def_101))) (let ((.def_103 (< .def_37 (- 1)))) (let ((.def_104 (not .def_103))) (let ((.def_105 (or .def_104 A1))) (let ((.def_106 (not .def_105))) (let ((.def_107 (= .def_106 .def_102))) (let ((.def_108 (and .def_107 .def_97))) (let ((.def_109 (* 1 x6))) (let ((.def_110 (+ .def_98 .def_109))) (let ((.def_111 (< .def_110 1))) (let ((.def_112 (or .def_111 A0))) (let ((.def_113 (and .def_78 A2))) (let ((.def_114 (or .def_113 .def_112))) (let ((.def_115 (not .def_114))) (let ((.def_116 (* 1 x4))) (let ((.def_117 (* (- 1) x9))) (let ((.def_118 (+ .def_117 .def_116))) (let ((.def_119 (< .def_118 1))) (let ((.def_120 (not .def_119))) (let ((.def_121 (or .def_120 A2))) (let ((.def_122 (not .def_121))) (let ((.def_123 (or .def_15 .def_78))) (let ((.def_124 (and .def_123 .def_122))) (let ((.def_125 (or .def_124 .def_115))) (let ((.def_126 (not .def_125))) (let ((.def_127 (and .def_126 .def_108))) (let ((.def_128 (* (- 1) x3))) (let ((.def_129 (+ .def_117 .def_128))) (let ((.def_130 (< .def_129 1))) (let ((.def_131 (not .def_130))) (let ((.def_132 (or .def_131 A7))) (let ((.def_133 (not .def_132))) (let ((.def_134 (< .def_1 (- 1)))) (let ((.def_135 (not .def_134))) (let ((.def_136 (and .def_135 A2))) (let ((.def_137 (not .def_136))) (let ((.def_138 (or .def_137 .def_133))) (let ((.def_139 (not .def_138))) (let ((.def_140 (+ .def_98 .def_5))) (let ((.def_141 (< .def_140 (- 1)))) (let ((.def_142 (not .def_141))) (let ((.def_143 (or .def_142 A2))) (let ((.def_144 (not .def_143))) (let ((.def_145 (or A1 A3))) (let ((.def_146 (or .def_145 .def_144))) (let ((.def_147 (and .def_146 .def_139))) (let ((.def_148 (and .def_66 A9))) (let ((.def_149 (not .def_148))) (let ((.def_150 (* (- 1) x5))) (let ((.def_151 (< .def_150 1))) (let ((.def_152 (not .def_151))) (let ((.def_153 (and A2 .def_152))) (let ((.def_154 (and .def_153 .def_149))) (let ((.def_155 (not .def_154))) (let ((.def_156 (not A1))) (let ((.def_157 (not A8))) (let ((.def_158 (or .def_157 .def_156))) (let ((.def_159 (+ .def_57 .def_116))) (let ((.def_160 (< .def_159 1))) (let ((.def_161 (= .def_160 .def_78))) (let ((.def_162 (not .def_161))) (let ((.def_163 (and .def_162 .def_158))) (let ((.def_164 (not .def_163))) (let ((.def_165 (or .def_164 .def_155))) (let ((.def_166 (and .def_165 .def_147))) (let ((.def_167 (not .def_166))) (let ((.def_168 (and .def_167 .def_127))) (let ((.def_169 (or .def_168 .def_92))) (let ((.def_170 (not .def_169))) (let ((.def_171 (+ .def_109 .def_58))) (let ((.def_172 (< .def_171 1))) (let ((.def_173 (not .def_172))) (let ((.def_174 (or .def_173 A1))) (let ((.def_175 (+ .def_128 .def_47))) (let ((.def_176 (< .def_175 1))) (let ((.def_177 (not .def_176))) (let ((.def_178 (or .def_177 A8))) (let ((.def_179 (and .def_178 .def_174))) (let ((.def_180 (and A7 .def_15))) (let ((.def_181 (not A4))) (let ((.def_182 (or A9 .def_181))) (let ((.def_183 (not .def_182))) (let ((.def_184 (and .def_183 .def_180))) (let ((.def_185 (and .def_184 .def_179))) (let ((.def_186 (< .def_37 1))) (let ((.def_187 (and .def_186 .def_15))) (let ((.def_188 (not .def_187))) (let ((.def_189 (+ .def_47 .def_57))) (let ((.def_190 (< .def_189 1))) (let ((.def_191 (not .def_190))) (let ((.def_192 (or .def_191 .def_156))) (let ((.def_193 (or .def_192 .def_188))) (let ((.def_194 (+ .def_37 .def_109))) (let ((.def_195 (< .def_194 (- 1)))) (let ((.def_196 (not .def_195))) (let ((.def_197 (or .def_81 .def_196))) (let ((.def_198 (not .def_197))) (let ((.def_199 (and .def_156 A3))) (let ((.def_200 (= .def_199 .def_198))) (let ((.def_201 (and .def_200 .def_193))) (let ((.def_202 (not .def_201))) (let ((.def_203 (or .def_202 .def_185))) (let ((.def_204 (+ .def_82 .def_58))) (let ((.def_205 (< .def_204 (- 1)))) (let ((.def_206 (not .def_205))) (let ((.def_207 (and .def_206 .def_156))) (let ((.def_208 (not .def_207))) (let ((.def_209 (+ .def_6 .def_116))) (let ((.def_210 (< .def_209 (- 1)))) (let ((.def_211 (< .def_117 1))) (let ((.def_212 (and .def_211 .def_210))) (let ((.def_213 (and .def_212 .def_208))) (let ((.def_214 (not .def_213))) (let ((.def_215 (< .def_117 (- 1)))) (let ((.def_216 (not .def_215))) (let ((.def_217 (< .def_58 (- 1)))) (let ((.def_218 (not .def_217))) (let ((.def_219 (and .def_218 .def_216))) (let ((.def_220 (not .def_219))) (let ((.def_221 (< .def_23 (- 1)))) (let ((.def_222 (< .def_57 1))) (let ((.def_223 (not .def_222))) (let ((.def_224 (and .def_223 .def_221))) (let ((.def_225 (and .def_224 .def_220))) (let ((.def_226 (not .def_225))) (let ((.def_227 (and .def_226 .def_214))) (let ((.def_228 (not .def_227))) (let ((.def_229 (+ .def_5 .def_6))) (let ((.def_230 (< .def_229 (- 1)))) (let ((.def_231 (or .def_93 .def_230))) (let ((.def_232 (+ .def_98 .def_11))) (let ((.def_233 (< .def_232 (- 1)))) (let ((.def_234 (+ .def_128 .def_71))) (let ((.def_235 (< .def_234 (- 1)))) (let ((.def_236 (not .def_235))) (let ((.def_237 (and .def_236 .def_233))) (let ((.def_238 (not .def_237))) (let ((.def_239 (and .def_238 .def_231))) (let ((.def_240 (not .def_239))) (let ((.def_241 (and .def_54 .def_66))) (let ((.def_242 (+ .def_82 .def_23))) (let ((.def_243 (< .def_242 (- 1)))) (let ((.def_244 (and .def_156 .def_243))) (let ((.def_245 (and .def_244 .def_241))) (let ((.def_246 (and .def_245 .def_240))) (let ((.def_247 (not .def_246))) (let ((.def_248 (and .def_247 .def_228))) (let ((.def_249 (not .def_248))) (let ((.def_250 (or .def_249 .def_203))) (let ((.def_251 (not .def_221))) (let ((.def_252 (< .def_171 (- 1)))) (let ((.def_253 (or .def_252 .def_251))) (let ((.def_254 (not .def_253))) (let ((.def_255 (or A0 A9))) (let ((.def_256 (not .def_255))) (let ((.def_257 (= .def_256 .def_254))) (let ((.def_258 (not .def_257))) (let ((.def_259 (< .def_109 (- 1)))) (let ((.def_260 (not .def_259))) (let ((.def_261 (< .def_98 1))) (let ((.def_262 (and .def_261 .def_260))) (let ((.def_263 (+ .def_98 .def_37))) (let ((.def_264 (< .def_263 (- 1)))) (let ((.def_265 (and .def_264 A9))) (let ((.def_266 (not .def_265))) (let ((.def_267 (or .def_266 .def_262))) (let ((.def_268 (not .def_267))) (let ((.def_269 (= .def_268 .def_258))) (let ((.def_270 (not .def_269))) (let ((.def_271 (* (- 1) x6))) (let ((.def_272 (+ .def_271 .def_71))) (let ((.def_273 (< .def_272 1))) (let ((.def_274 (and A7 .def_273))) (let ((.def_275 (not .def_274))) (let ((.def_276 (not A6))) (let ((.def_277 (or .def_60 .def_276))) (let ((.def_278 (not .def_277))) (let ((.def_279 (= .def_278 .def_275))) (let ((.def_280 (< .def_116 (- 1)))) (let ((.def_281 (not .def_280))) (let ((.def_282 (or .def_281 .def_157))) (let ((.def_283 (not .def_282))) (let ((.def_284 (and .def_15 .def_156))) (let ((.def_285 (not .def_284))) (let ((.def_286 (and .def_285 .def_283))) (let ((.def_287 (= .def_286 .def_279))) (let ((.def_288 (= .def_287 .def_270))) (let ((.def_289 (and A5 A2))) (let ((.def_290 (< .def_109 1))) (let ((.def_291 (not .def_290))) (let ((.def_292 (+ .def_46 .def_116))) (let ((.def_293 (< .def_292 (- 1)))) (let ((.def_294 (or .def_293 .def_291))) (let ((.def_295 (not .def_294))) (let ((.def_296 (and .def_295 .def_289))) (let ((.def_297 (not .def_296))) (let ((.def_298 (< .def_150 (- 1)))) (let ((.def_299 (+ .def_128 .def_57))) (let ((.def_300 (< .def_299 1))) (let ((.def_301 (and .def_300 .def_298))) (let ((.def_302 (or A4 .def_0))) (let ((.def_303 (or .def_302 .def_301))) (let ((.def_304 (not .def_303))) (let ((.def_305 (or .def_304 .def_297))) (let ((.def_306 (< .def_116 1))) (let ((.def_307 (not .def_306))) (let ((.def_308 (and .def_0 .def_307))) (let ((.def_309 (+ .def_116 .def_6))) (let ((.def_310 (< .def_309 1))) (let ((.def_311 (and A0 .def_310))) (let ((.def_312 (not .def_311))) (let ((.def_313 (or .def_312 .def_308))) (let ((.def_314 (< .def_6 1))) (let ((.def_315 (not .def_314))) (let ((.def_316 (and .def_315 .def_156))) (let ((.def_317 (not .def_316))) (let ((.def_318 (< .def_7 (- 1)))) (let ((.def_319 (not .def_318))) (let ((.def_320 (< .def_71 1))) (let ((.def_321 (and .def_320 .def_319))) (let ((.def_322 (or .def_321 .def_317))) (let ((.def_323 (and .def_322 .def_313))) (let ((.def_324 (not .def_323))) (let ((.def_325 (or .def_324 .def_305))) (let ((.def_326 (or .def_325 .def_288))) (let ((.def_327 (and .def_326 .def_250))) (let ((.def_328 (not .def_327))) (let ((.def_329 (and .def_328 .def_170))) (let ((.def_330 (not .def_329))) (let ((.def_331 (not .def_81))) (let ((.def_332 (+ .def_37 .def_6))) (let ((.def_333 (< .def_332 1))) (let ((.def_334 (and .def_333 .def_331))) (let ((.def_335 (and A1 .def_181))) (let ((.def_336 (not .def_335))) (let ((.def_337 (and .def_336 .def_334))) (let ((.def_338 (not .def_337))) (let ((.def_339 (+ .def_47 .def_11))) (let ((.def_340 (< .def_339 (- 1)))) (let ((.def_341 (not .def_340))) (let ((.def_342 (= .def_181 .def_341))) (let ((.def_343 (< .def_82 1))) (let ((.def_344 (not .def_343))) (let ((.def_345 (or .def_344 .def_290))) (let ((.def_346 (= .def_345 .def_342))) (let ((.def_347 (or .def_346 .def_338))) (let ((.def_348 (< .def_271 1))) (let ((.def_349 (or A6 .def_348))) (let ((.def_350 (< .def_46 (- 1)))) (let ((.def_351 (not .def_350))) (let ((.def_352 (or .def_351 A1))) (let ((.def_353 (not .def_352))) (let ((.def_354 (or .def_353 .def_349))) (let ((.def_355 (and A5 .def_260))) (let ((.def_356 (not .def_355))) (let ((.def_357 (or .def_356 .def_32))) (let ((.def_358 (or .def_357 .def_354))) (let ((.def_359 (not .def_358))) (let ((.def_360 (and .def_359 .def_347))) (let ((.def_361 (not .def_360))) (let ((.def_362 (or .def_157 A2))) (let ((.def_363 (< .def_332 (- 1)))) (let ((.def_364 (+ .def_71 .def_6))) (let ((.def_365 (< .def_364 1))) (let ((.def_366 (or .def_365 .def_363))) (let ((.def_367 (and .def_366 .def_362))) (let ((.def_368 (or A1 .def_93))) (let ((.def_369 (not .def_368))) (let ((.def_370 (< .def_189 (- 1)))) (let ((.def_371 (not .def_370))) (let ((.def_372 (or .def_371 .def_157))) (let ((.def_373 (not .def_372))) (let ((.def_374 (or .def_373 .def_369))) (let ((.def_375 (not .def_374))) (let ((.def_376 (or .def_375 .def_367))) (let ((.def_377 (+ .def_128 .def_150))) (let ((.def_378 (< .def_377 (- 1)))) (let ((.def_379 (not .def_378))) (let ((.def_380 (= .def_379 A9))) (let ((.def_381 (not .def_380))) (let ((.def_382 (or .def_22 .def_66))) (let ((.def_383 (not .def_382))) (let ((.def_384 (and .def_383 .def_381))) (let ((.def_385 (not .def_384))) (let ((.def_386 (or .def_281 A8))) (let ((.def_387 (not .def_386))) (let ((.def_388 (+ .def_23 .def_150))) (let ((.def_389 (< .def_388 (- 1)))) (let ((.def_390 (or .def_78 .def_389))) (let ((.def_391 (not .def_390))) (let ((.def_392 (or .def_391 .def_387))) (let ((.def_393 (and .def_392 .def_385))) (let ((.def_394 (not .def_393))) (let ((.def_395 (or .def_394 .def_376))) (let ((.def_396 (and .def_395 .def_361))) (let ((.def_397 (< .def_128 1))) (let ((.def_398 (not .def_397))) (let ((.def_399 (not .def_111))) (let ((.def_400 (or .def_399 .def_398))) (let ((.def_401 (+ .def_6 .def_58))) (let ((.def_402 (< .def_401 1))) (let ((.def_403 (or .def_0 .def_402))) (let ((.def_404 (not .def_403))) (let ((.def_405 (and .def_404 .def_400))) (let ((.def_406 (+ .def_116 .def_58))) (let ((.def_407 (< .def_406 (- 1)))) (let ((.def_408 (not .def_407))) (let ((.def_409 (= .def_408 .def_156))) (let ((.def_410 (+ .def_271 .def_5))) (let ((.def_411 (< .def_410 (- 1)))) (let ((.def_412 (not .def_411))) (let ((.def_413 (< .def_23 1))) (let ((.def_414 (or .def_413 .def_412))) (let ((.def_415 (or .def_414 .def_409))) (let ((.def_416 (not .def_415))) (let ((.def_417 (or .def_416 .def_405))) (let ((.def_418 (and .def_93 A5))) (let ((.def_419 (not .def_418))) (let ((.def_420 (+ .def_1 .def_150))) (let ((.def_421 (< .def_420 1))) (let ((.def_422 (not .def_421))) (let ((.def_423 (and .def_422 A6))) (let ((.def_424 (not .def_423))) (let ((.def_425 (and .def_424 .def_419))) (let ((.def_426 (not .def_425))) (let ((.def_427 (or .def_157 .def_67))) (let ((.def_428 (+ .def_6 .def_271))) (let ((.def_429 (< .def_428 (- 1)))) (let ((.def_430 (or .def_429 .def_222))) (let ((.def_431 (not .def_430))) (let ((.def_432 (and .def_431 .def_427))) (let ((.def_433 (or .def_432 .def_426))) (let ((.def_434 (not .def_433))) (let ((.def_435 (or .def_434 .def_417))) (let ((.def_436 (not .def_435))) (let ((.def_437 (< .def_11 (- 1)))) (let ((.def_438 (+ .def_109 .def_82))) (let ((.def_439 (< .def_438 1))) (let ((.def_440 (not .def_439))) (let ((.def_441 (= .def_440 .def_437))) (let ((.def_442 (not .def_441))) (let ((.def_443 (and .def_156 .def_156))) (let ((.def_444 (not .def_443))) (let ((.def_445 (= .def_444 .def_442))) (let ((.def_446 (not .def_445))) (let ((.def_447 (and A1 .def_15))) (let ((.def_448 (not .def_447))) (let ((.def_449 (and .def_261 .def_156))) (let ((.def_450 (or .def_449 .def_448))) (let ((.def_451 (or .def_450 .def_446))) (let ((.def_452 (< .def_43 1))) (let ((.def_453 (not .def_452))) (let ((.def_454 (and .def_15 .def_453))) (let ((.def_455 (< .def_58 1))) (let ((.def_456 (and .def_83 .def_455))) (let ((.def_457 (or .def_456 .def_454))) (let ((.def_458 (not .def_457))) (let ((.def_459 (+ .def_11 .def_109))) (let ((.def_460 (< .def_459 1))) (let ((.def_461 (and .def_460 .def_15))) (let ((.def_462 (not .def_461))) (let ((.def_463 (< .def_47 (- 1)))) (let ((.def_464 (and .def_463 A4))) (let ((.def_465 (not .def_464))) (let ((.def_466 (or .def_465 .def_462))) (let ((.def_467 (and .def_466 .def_458))) (let ((.def_468 (not .def_467))) (let ((.def_469 (and .def_468 .def_451))) (let ((.def_470 (not .def_469))) (let ((.def_471 (and .def_470 .def_436))) (let ((.def_472 (and .def_471 .def_396))) (let ((.def_473 (not .def_472))) (let ((.def_474 (+ .def_98 .def_116))) (let ((.def_475 (< .def_474 (- 1)))) (let ((.def_476 (or .def_351 .def_475))) (let ((.def_477 (not .def_476))) (let ((.def_478 (+ .def_128 .def_271))) (let ((.def_479 (< .def_478 1))) (let ((.def_480 (not .def_479))) (let ((.def_481 (or .def_78 .def_480))) (let ((.def_482 (or .def_481 .def_477))) (let ((.def_483 (not .def_482))) (let ((.def_484 (< .def_128 (- 1)))) (let ((.def_485 (not .def_484))) (let ((.def_486 (+ .def_43 .def_128))) (let ((.def_487 (< .def_486 1))) (let ((.def_488 (not .def_487))) (let ((.def_489 (and .def_488 .def_485))) (let ((.def_490 (not .def_489))) (let ((.def_491 (and .def_68 .def_66))) (let ((.def_492 (and .def_491 .def_490))) (let ((.def_493 (not .def_492))) (let ((.def_494 (or .def_493 .def_483))) (let ((.def_495 (not .def_494))) (let ((.def_496 (+ .def_23 .def_1))) (let ((.def_497 (< .def_496 1))) (let ((.def_498 (and .def_497 A7))) (let ((.def_499 (not .def_498))) (let ((.def_500 (and A0 .def_0))) (let ((.def_501 (not .def_500))) (let ((.def_502 (= .def_501 .def_499))) (let ((.def_503 (not .def_502))) (let ((.def_504 (= A1 .def_0))) (let ((.def_505 (and A4 .def_341))) (let ((.def_506 (or .def_505 .def_504))) (let ((.def_507 (or .def_506 .def_503))) (let ((.def_508 (not .def_507))) (let ((.def_509 (and .def_508 .def_495))) (let ((.def_510 (+ .def_116 .def_5))) (let ((.def_511 (< .def_510 (- 1)))) (let ((.def_512 (+ .def_128 .def_46))) (let ((.def_513 (< .def_512 (- 1)))) (let ((.def_514 (not .def_513))) (let ((.def_515 (and .def_514 .def_511))) (let ((.def_516 (+ .def_117 .def_150))) (let ((.def_517 (< .def_516 (- 1)))) (let ((.def_518 (not .def_517))) (let ((.def_519 (and .def_518 .def_320))) (let ((.def_520 (or .def_519 .def_515))) (let ((.def_521 (not .def_520))) (let ((.def_522 (and .def_291 .def_15))) (let ((.def_523 (not .def_522))) (let ((.def_524 (not .def_2))) (let ((.def_525 (or A1 .def_524))) (let ((.def_526 (or .def_525 .def_523))) (let ((.def_527 (not .def_526))) (let ((.def_528 (or .def_527 .def_521))) (let ((.def_529 (not .def_528))) (let ((.def_530 (and .def_54 A1))) (let ((.def_531 (not .def_530))) (let ((.def_532 (+ .def_58 .def_5))) (let ((.def_533 (< .def_532 (- 1)))) (let ((.def_534 (not .def_533))) (let ((.def_535 (and .def_31 .def_534))) (let ((.def_536 (not .def_535))) (let ((.def_537 (and .def_536 .def_531))) (let ((.def_538 (+ .def_150 .def_82))) (let ((.def_539 (< .def_538 (- 1)))) (let ((.def_540 (or .def_539 A6))) (let ((.def_541 (not .def_261))) (let ((.def_542 (or .def_541 .def_15))) (let ((.def_543 (and .def_542 .def_540))) (let ((.def_544 (or .def_543 .def_537))) (let ((.def_545 (not .def_544))) (let ((.def_546 (or .def_545 .def_529))) (let ((.def_547 (and .def_546 .def_509))) (let ((.def_548 (< .def_6 (- 1)))) (let ((.def_549 (and .def_93 .def_548))) (let ((.def_550 (+ .def_271 .def_37))) (let ((.def_551 (< .def_550 (- 1)))) (let ((.def_552 (and .def_15 .def_551))) (let ((.def_553 (or .def_552 .def_549))) (let ((.def_554 (not .def_553))) (let ((.def_555 (< .def_57 (- 1)))) (let ((.def_556 (not .def_555))) (let ((.def_557 (+ .def_98 .def_6))) (let ((.def_558 (< .def_557 1))) (let ((.def_559 (not .def_558))) (let ((.def_560 (and .def_559 .def_556))) (let ((.def_561 (+ .def_5 .def_58))) (let ((.def_562 (< .def_561 1))) (let ((.def_563 (not .def_562))) (let ((.def_564 (and .def_452 .def_563))) (let ((.def_565 (not .def_564))) (let ((.def_566 (or .def_565 .def_560))) (let ((.def_567 (not .def_566))) (let ((.def_568 (or .def_567 .def_554))) (let ((.def_569 (and A8 .def_181))) (let ((.def_570 (not .def_569))) (let ((.def_571 (+ .def_6 .def_82))) (let ((.def_572 (< .def_571 1))) (let ((.def_573 (not .def_572))) (let ((.def_574 (or .def_157 .def_573))) (let ((.def_575 (or .def_574 .def_570))) (let ((.def_576 (+ .def_150 .def_71))) (let ((.def_577 (< .def_576 (- 1)))) (let ((.def_578 (not .def_577))) (let ((.def_579 (and .def_22 .def_578))) (let ((.def_580 (and .def_485 A1))) (let ((.def_581 (or .def_580 .def_579))) (let ((.def_582 (or .def_581 .def_575))) (let ((.def_583 (not .def_582))) (let ((.def_584 (or .def_583 .def_568))) (let ((.def_585 (not .def_584))) (let ((.def_586 (+ .def_5 .def_57))) (let ((.def_587 (< .def_586 1))) (let ((.def_588 (not .def_587))) (let ((.def_589 (+ .def_23 .def_11))) (let ((.def_590 (< .def_589 1))) (let ((.def_591 (not .def_590))) (let ((.def_592 (and .def_591 .def_588))) (let ((.def_593 (and A4 .def_541))) (let ((.def_594 (not .def_593))) (let ((.def_595 (and .def_594 .def_592))) (let ((.def_596 (not .def_413))) (let ((.def_597 (and .def_596 .def_0))) (let ((.def_598 (not .def_597))) (let ((.def_599 (+ .def_109 .def_5))) (let ((.def_600 (< .def_599 1))) (let ((.def_601 (or .def_222 .def_600))) (let ((.def_602 (and .def_601 .def_598))) (let ((.def_603 (not .def_602))) (let ((.def_604 (and .def_603 .def_595))) (let ((.def_605 (not .def_604))) (let ((.def_606 (and .def_0 A0))) (let ((.def_607 (+ .def_71 .def_43))) (let ((.def_608 (< .def_607 (- 1)))) (let ((.def_609 (not .def_608))) (let ((.def_610 (or A3 .def_609))) (let ((.def_611 (not .def_610))) (let ((.def_612 (and .def_611 .def_606))) (let ((.def_613 (= A8 A5))) (let ((.def_614 (not .def_613))) (let ((.def_615 (+ .def_117 .def_5))) (let ((.def_616 (< .def_615 1))) (let ((.def_617 (and .def_616 .def_78))) (let ((.def_618 (or .def_617 .def_614))) (let ((.def_619 (or .def_618 .def_612))) (let ((.def_620 (not .def_619))) (let ((.def_621 (= .def_620 .def_605))) (let ((.def_622 (and .def_621 .def_585))) (let ((.def_623 (and .def_622 .def_547))) (let ((.def_624 (and .def_623 .def_473))) (let ((.def_625 (or .def_624 .def_330))) (let ((.def_626 (not .def_625))) (let ((.def_627 (<= x9 1))) (let ((.def_628 (<= 0 x9))) (let ((.def_629 (<= x8 1))) (let ((.def_630 (<= 0 x8))) (let ((.def_631 (<= x7 1))) (let ((.def_632 (<= 0 x7))) (let ((.def_633 (<= x6 1))) (let ((.def_634 (<= 0 x6))) (let ((.def_635 (<= x5 1))) (let ((.def_636 (<= 0 x5))) (let ((.def_637 (<= x4 1))) (let ((.def_638 (<= 0 x4))) (let ((.def_639 (<= x3 1))) (let ((.def_640 (<= 0 x3))) (let ((.def_641 (<= x2 1))) (let ((.def_642 (<= 0 x2))) (let ((.def_643 (<= x1 1))) (let ((.def_644 (<= 0 x1))) (let ((.def_645 (<= x0 1))) (let ((.def_646 (<= 0 x0))) (let ((.def_647 (and .def_646 .def_645 .def_644 .def_643 .def_642 .def_641 .def_640 .def_639 .def_638 .def_637 .def_636 .def_635 .def_634 .def_633 .def_632 .def_631 .def_630 .def_629 .def_628 .def_627 .def_626))) .def_647)))))))))))))))))))))))))))))))))))))))))))))))))))))))))))))))))))))))))))))))))))))))))))))))))))))))))))))))))))))))))))))))))))))))))))))))))))))))))))))))))))))))))))))))))))))))))))))))))))))))))))))))))))))))))))))))))))))))))))))))))))))))))))))))))))))))))))))))))))))))))))))))))))))))))))))))))))))))))))))))))))))))))))))))))))))))))))))))))))))))))))))))))))))))))))))))))))))))))))))))))))))))))))))))))))))))))))))))))))))))))))))))))))))))))))))))))))))))))))))))))))))))))))))))))))))))))))))))))))))))))))))))))))))))))))))))))))))))))))))))))))))))))))))))))))))))))))))))))))))))))))))))))))))))))))))))))))))))))))))))))))))))))
(check-sat)
